c colouring generated by benchmark framework
p edge 96 1368
v 1 7
v 2 12
v 3 1
v 4 6
v 5 4
v 6 8
v 7 3
v 8 10
v 9 11
v 10 2
v 11 9
v 12 5
v 13 6
v 14 4
v 15 8
v 16 5
v 17 11
v 18 7
v 19 9
v 20 1
v 21 0
v 22 3
v 23 12
v 24 2
v 25 11
v 26 9
v 27 2
v 28 3
v 29 10
v 30 5
v 31 12
v 32 4
v 33 7
v 34 6
v 35 8
v 36 0
v 37 12
v 38 7
v 39 4
v 40 0
v 41 2
v 42 3
v 43 1
v 44 5
v 45 10
v 46 9
v 47 11
v 48 6
v 49 9
v 50 0
v 51 12
v 52 7
v 53 8
v 54 6
v 55 4
v 56 2
v 57 1
v 58 5
v 59 10
v 60 3
v 61 10
v 62 5
v 63 6
v 64 9
v 65 3
v 66 1
v 67 11
v 68 0
v 69 4
v 70 8
v 71 2
v 72 12
v 73 4
v 74 1
v 75 10
v 76 8
v 77 6
v 78 0
v 79 5
v 80 7
v 81 2
v 82 12
v 83 3
v 84 11
v 85 8
v 86 6
v 87 5
v 88 12
v 89 7
v 90 4
v 91 2
v 92 3
v 93 9
v 94 11
v 95 0
v 96 10
